PROBLEM NAME: small_9_UncorrelatedWithSimilarWeights_n14_m39_c1
KNAPSACK DATA TYPE:
DIMENSION: 14
NUMBER OF ITEMS: 39
CAPACITY OF KNAPSACK: 3564
MIN SPEED: 0.1
MAX SPEED: 1.0
RENTING RATIO: 1.0
EDGE_WEIGHT_TYPE: CEIL_2D
NODE_COORD_SECTION	(INDEX, X, Y): 
1	212	790
2	951	566
3	138	1
4	216	254
5	229	646
6	320	408
7	591	166
8	292	549
9	369	155
10	564	582
11	512	637
12	858	3
13	319	310
14	57	951
ITEMS SECTION	(INDEX, PROFIT, WEIGHT, ASSIGNED NODE NUMBER): 
1	420	1002	2
2	142	1001	2
3	596	1006	2
4	515	1004	3
5	117	1003	3
6	449	1005	3
7	181	1001	4
8	797	1008	4
9	587	1010	4
10	712	1007	5
11	804	1007	5
12	315	1005	5
13	889	1004	6
14	645	1003	6
15	455	1005	6
16	149	1005	7
17	732	1009	7
18	376	1010	7
19	917	1008	8
20	727	1006	8
21	804	1002	8
22	729	1008	9
23	414	1006	9
24	319	1001	9
25	686	1008	10
26	94	1010	10
27	674	1002	10
28	790	1004	11
29	721	1008	11
30	915	1006	11
31	977	1001	12
32	477	1000	12
33	978	1002	12
34	891	1003	13
35	625	1003	13
36	145	1009	13
37	208	1010	14
38	612	1009	14
39	554	1005	14
